c description: Tseitin formula on Random 5-regular graph of 40 vertices, with odd charge
c generator: CNFgen (0.9.0)
c copyright: (C) 2012-2020 Massimo Lauria <massimo.lauria@uniroma1.it>
c url: https://massimolauria.net/cnfgen
c random seed: 1
c command line: cnfgen --seed 1 tseitin randomodd gnd 40 5
c
p cnf 100 640
1 2 3 4 -5 0
1 2 3 -4 5 0
1 2 -3 4 5 0
1 2 -3 -4 -5 0
1 -2 3 4 5 0
1 -2 3 -4 -5 0
1 -2 -3 4 -5 0
1 -2 -3 -4 5 0
-1 2 3 4 5 0
-1 2 3 -4 -5 0
-1 2 -3 4 -5 0
-1 2 -3 -4 5 0
-1 -2 3 4 -5 0
-1 -2 3 -4 5 0
-1 -2 -3 4 5 0
-1 -2 -3 -4 -5 0
6 7 8 9 -10 0
6 7 8 -9 10 0
6 7 -8 9 10 0
6 7 -8 -9 -10 0
6 -7 8 9 10 0
6 -7 8 -9 -10 0
6 -7 -8 9 -10 0
6 -7 -8 -9 10 0
-6 7 8 9 10 0
-6 7 8 -9 -10 0
-6 7 -8 9 -10 0
-6 7 -8 -9 10 0
-6 -7 8 9 -10 0
-6 -7 8 -9 10 0
-6 -7 -8 9 10 0
-6 -7 -8 -9 -10 0
11 12 13 14 15 0
11 12 13 -14 -15 0
11 12 -13 14 -15 0
11 12 -13 -14 15 0
11 -12 13 14 -15 0
11 -12 13 -14 15 0
11 -12 -13 14 15 0
11 -12 -13 -14 -15 0
-11 12 13 14 -15 0
-11 12 13 -14 15 0
-11 12 -13 14 15 0
-11 12 -13 -14 -15 0
-11 -12 13 14 15 0
-11 -12 13 -14 -15 0
-11 -12 -13 14 -15 0
-11 -12 -13 -14 15 0
16 17 18 19 -20 0
16 17 18 -19 20 0
16 17 -18 19 20 0
16 17 -18 -19 -20 0
16 -17 18 19 20 0
16 -17 18 -19 -20 0
16 -17 -18 19 -20 0
16 -17 -18 -19 20 0
-16 17 18 19 20 0
-16 17 18 -19 -20 0
-16 17 -18 19 -20 0
-16 17 -18 -19 20 0
-16 -17 18 19 -20 0
-16 -17 18 -19 20 0
-16 -17 -18 19 20 0
-16 -17 -18 -19 -20 0
21 22 23 24 25 0
21 22 23 -24 -25 0
21 22 -23 24 -25 0
21 22 -23 -24 25 0
21 -22 23 24 -25 0
21 -22 23 -24 25 0
21 -22 -23 24 25 0
21 -22 -23 -24 -25 0
-21 22 23 24 -25 0
-21 22 23 -24 25 0
-21 22 -23 24 25 0
-21 22 -23 -24 -25 0
-21 -22 23 24 25 0
-21 -22 23 -24 -25 0
-21 -22 -23 24 -25 0
-21 -22 -23 -24 25 0
26 27 28 29 30 0
26 27 28 -29 -30 0
26 27 -28 29 -30 0
26 27 -28 -29 30 0
26 -27 28 29 -30 0
26 -27 28 -29 30 0
26 -27 -28 29 30 0
26 -27 -28 -29 -30 0
-26 27 28 29 -30 0
-26 27 28 -29 30 0
-26 27 -28 29 30 0
-26 27 -28 -29 -30 0
-26 -27 28 29 30 0
-26 -27 28 -29 -30 0
-26 -27 -28 29 -30 0
-26 -27 -28 -29 30 0
1 16 26 31 32 0
1 16 26 -31 -32 0
1 16 -26 31 -32 0
1 16 -26 -31 32 0
1 -16 26 31 -32 0
1 -16 26 -31 32 0
1 -16 -26 31 32 0
1 -16 -26 -31 -32 0
-1 16 26 31 -32 0
-1 16 26 -31 32 0
-1 16 -26 31 32 0
-1 16 -26 -31 -32 0
-1 -16 26 31 32 0
-1 -16 26 -31 -32 0
-1 -16 -26 31 -32 0
-1 -16 -26 -31 32 0
21 33 34 35 36 0
21 33 34 -35 -36 0
21 33 -34 35 -36 0
21 33 -34 -35 36 0
21 -33 34 35 -36 0
21 -33 34 -35 36 0
21 -33 -34 35 36 0
21 -33 -34 -35 -36 0
-21 33 34 35 -36 0
-21 33 34 -35 36 0
-21 33 -34 35 36 0
-21 33 -34 -35 -36 0
-21 -33 34 35 36 0
-21 -33 34 -35 -36 0
-21 -33 -34 35 -36 0
-21 -33 -34 -35 36 0
37 38 39 40 -41 0
37 38 39 -40 41 0
37 38 -39 40 41 0
37 38 -39 -40 -41 0
37 -38 39 40 41 0
37 -38 39 -40 -41 0
37 -38 -39 40 -41 0
37 -38 -39 -40 41 0
-37 38 39 40 41 0
-37 38 39 -40 -41 0
-37 38 -39 40 -41 0
-37 38 -39 -40 41 0
-37 -38 39 40 -41 0
-37 -38 39 -40 41 0
-37 -38 -39 40 41 0
-37 -38 -39 -40 -41 0
6 42 43 44 -45 0
6 42 43 -44 45 0
6 42 -43 44 45 0
6 42 -43 -44 -45 0
6 -42 43 44 45 0
6 -42 43 -44 -45 0
6 -42 -43 44 -45 0
6 -42 -43 -44 45 0
-6 42 43 44 45 0
-6 42 43 -44 -45 0
-6 42 -43 44 -45 0
-6 42 -43 -44 45 0
-6 -42 43 44 -45 0
-6 -42 43 -44 45 0
-6 -42 -43 44 45 0
-6 -42 -43 -44 -45 0
42 46 47 48 49 0
42 46 47 -48 -49 0
42 46 -47 48 -49 0
42 46 -47 -48 49 0
42 -46 47 48 -49 0
42 -46 47 -48 49 0
42 -46 -47 48 49 0
42 -46 -47 -48 -49 0
-42 46 47 48 -49 0
-42 46 47 -48 49 0
-42 46 -47 48 49 0
-42 46 -47 -48 -49 0
-42 -46 47 48 49 0
-42 -46 47 -48 -49 0
-42 -46 -47 48 -49 0
-42 -46 -47 -48 49 0
2 50 51 52 -53 0
2 50 51 -52 53 0
2 50 -51 52 53 0
2 50 -51 -52 -53 0
2 -50 51 52 53 0
2 -50 51 -52 -53 0
2 -50 -51 52 -53 0
2 -50 -51 -52 53 0
-2 50 51 52 53 0
-2 50 51 -52 -53 0
-2 50 -51 52 -53 0
-2 50 -51 -52 53 0
-2 -50 51 52 -53 0
-2 -50 51 -52 53 0
-2 -50 -51 52 53 0
-2 -50 -51 -52 -53 0
7 46 54 55 56 0
7 46 54 -55 -56 0
7 46 -54 55 -56 0
7 46 -54 -55 56 0
7 -46 54 55 -56 0
7 -46 54 -55 56 0
7 -46 -54 55 56 0
7 -46 -54 -55 -56 0
-7 46 54 55 -56 0
-7 46 54 -55 56 0
-7 46 -54 55 56 0
-7 46 -54 -55 -56 0
-7 -46 54 55 56 0
-7 -46 54 -55 -56 0
-7 -46 -54 55 -56 0
-7 -46 -54 -55 56 0
8 54 57 58 59 0
8 54 57 -58 -59 0
8 54 -57 58 -59 0
8 54 -57 -58 59 0
8 -54 57 58 -59 0
8 -54 57 -58 59 0
8 -54 -57 58 59 0
8 -54 -57 -58 -59 0
-8 54 57 58 -59 0
-8 54 57 -58 59 0
-8 54 -57 58 59 0
-8 54 -57 -58 -59 0
-8 -54 57 58 59 0
-8 -54 57 -58 -59 0
-8 -54 -57 58 -59 0
-8 -54 -57 -58 59 0
50 60 61 62 -63 0
50 60 61 -62 63 0
50 60 -61 62 63 0
50 60 -61 -62 -63 0
50 -60 61 62 63 0
50 -60 61 -62 -63 0
50 -60 -61 62 -63 0
50 -60 -61 -62 63 0
-50 60 61 62 63 0
-50 60 61 -62 -63 0
-50 60 -61 62 -63 0
-50 60 -61 -62 63 0
-50 -60 61 62 -63 0
-50 -60 61 -62 63 0
-50 -60 -61 62 63 0
-50 -60 -61 -62 -63 0
33 64 65 66 67 0
33 64 65 -66 -67 0
33 64 -65 66 -67 0
33 64 -65 -66 67 0
33 -64 65 66 -67 0
33 -64 65 -66 67 0
33 -64 -65 66 67 0
33 -64 -65 -66 -67 0
-33 64 65 66 -67 0
-33 64 65 -66 67 0
-33 64 -65 66 67 0
-33 64 -65 -66 -67 0
-33 -64 65 66 67 0
-33 -64 65 -66 -67 0
-33 -64 -65 66 -67 0
-33 -64 -65 -66 67 0
11 37 51 64 68 0
11 37 51 -64 -68 0
11 37 -51 64 -68 0
11 37 -51 -64 68 0
11 -37 51 64 -68 0
11 -37 51 -64 68 0
11 -37 -51 64 68 0
11 -37 -51 -64 -68 0
-11 37 51 64 -68 0
-11 37 51 -64 68 0
-11 37 -51 64 68 0
-11 37 -51 -64 -68 0
-11 -37 51 64 68 0
-11 -37 51 -64 -68 0
-11 -37 -51 64 -68 0
-11 -37 -51 -64 68 0
34 47 69 70 -71 0
34 47 69 -70 71 0
34 47 -69 70 71 0
34 47 -69 -70 -71 0
34 -47 69 70 71 0
34 -47 69 -70 -71 0
34 -47 -69 70 -71 0
34 -47 -69 -70 71 0
-34 47 69 70 71 0
-34 47 69 -70 -71 0
-34 47 -69 70 -71 0
-34 47 -69 -70 71 0
-34 -47 69 70 -71 0
-34 -47 69 -70 71 0
-34 -47 -69 70 71 0
-34 -47 -69 -70 -71 0
68 72 73 74 -75 0
68 72 73 -74 75 0
68 72 -73 74 75 0
68 72 -73 -74 -75 0
68 -72 73 74 75 0
68 -72 73 -74 -75 0
68 -72 -73 74 -75 0
68 -72 -73 -74 75 0
-68 72 73 74 75 0
-68 72 73 -74 -75 0
-68 72 -73 74 -75 0
-68 72 -73 -74 75 0
-68 -72 73 74 -75 0
-68 -72 73 -74 75 0
-68 -72 -73 74 75 0
-68 -72 -73 -74 -75 0
22 38 60 76 77 0
22 38 60 -76 -77 0
22 38 -60 76 -77 0
22 38 -60 -76 77 0
22 -38 60 76 -77 0
22 -38 60 -76 77 0
22 -38 -60 76 77 0
22 -38 -60 -76 -77 0
-22 38 60 76 -77 0
-22 38 60 -76 77 0
-22 38 -60 76 77 0
-22 38 -60 -76 -77 0
-22 -38 60 76 77 0
-22 -38 60 -76 -77 0
-22 -38 -60 76 -77 0
-22 -38 -60 -76 77 0
3 12 23 65 -78 0
3 12 23 -65 78 0
3 12 -23 65 78 0
3 12 -23 -65 -78 0
3 -12 23 65 78 0
3 -12 23 -65 -78 0
3 -12 -23 65 -78 0
3 -12 -23 -65 78 0
-3 12 23 65 78 0
-3 12 23 -65 -78 0
-3 12 -23 65 -78 0
-3 12 -23 -65 78 0
-3 -12 23 65 -78 0
-3 -12 23 -65 78 0
-3 -12 -23 65 78 0
-3 -12 -23 -65 -78 0
13 24 61 72 -79 0
13 24 61 -72 79 0
13 24 -61 72 79 0
13 24 -61 -72 -79 0
13 -24 61 72 79 0
13 -24 61 -72 -79 0
13 -24 -61 72 -79 0
13 -24 -61 -72 79 0
-13 24 61 72 79 0
-13 24 61 -72 -79 0
-13 24 -61 72 -79 0
-13 24 -61 -72 79 0
-13 -24 61 72 -79 0
-13 -24 61 -72 79 0
-13 -24 -61 72 79 0
-13 -24 -61 -72 -79 0
48 57 69 76 -80 0
48 57 69 -76 80 0
48 57 -69 76 80 0
48 57 -69 -76 -80 0
48 -57 69 76 80 0
48 -57 69 -76 -80 0
48 -57 -69 76 -80 0
48 -57 -69 -76 80 0
-48 57 69 76 80 0
-48 57 69 -76 -80 0
-48 57 -69 76 -80 0
-48 57 -69 -76 80 0
-48 -57 69 76 -80 0
-48 -57 69 -76 80 0
-48 -57 -69 76 80 0
-48 -57 -69 -76 -80 0
39 81 82 83 -84 0
39 81 82 -83 84 0
39 81 -82 83 84 0
39 81 -82 -83 -84 0
39 -81 82 83 84 0
39 -81 82 -83 -84 0
39 -81 -82 83 -84 0
39 -81 -82 -83 84 0
-39 81 82 83 84 0
-39 81 82 -83 -84 0
-39 81 -82 83 -84 0
-39 81 -82 -83 84 0
-39 -81 82 83 -84 0
-39 -81 82 -83 84 0
-39 -81 -82 83 84 0
-39 -81 -82 -83 -84 0
27 58 81 85 86 0
27 58 81 -85 -86 0
27 58 -81 85 -86 0
27 58 -81 -85 86 0
27 -58 81 85 -86 0
27 -58 81 -85 86 0
27 -58 -81 85 86 0
27 -58 -81 -85 -86 0
-27 58 81 85 -86 0
-27 58 81 -85 86 0
-27 58 -81 85 86 0
-27 58 -81 -85 -86 0
-27 -58 81 85 86 0
-27 -58 81 -85 -86 0
-27 -58 -81 85 -86 0
-27 -58 -81 -85 86 0
70 73 78 87 -88 0
70 73 78 -87 88 0
70 73 -78 87 88 0
70 73 -78 -87 -88 0
70 -73 78 87 88 0
70 -73 78 -87 -88 0
70 -73 -78 87 -88 0
70 -73 -78 -87 88 0
-70 73 78 87 88 0
-70 73 78 -87 -88 0
-70 73 -78 87 -88 0
-70 73 -78 -87 88 0
-70 -73 78 87 -88 0
-70 -73 78 -87 88 0
-70 -73 -78 87 88 0
-70 -73 -78 -87 -88 0
4 9 17 28 89 0
4 9 17 -28 -89 0
4 9 -17 28 -89 0
4 9 -17 -28 89 0
4 -9 17 28 -89 0
4 -9 17 -28 89 0
4 -9 -17 28 89 0
4 -9 -17 -28 -89 0
-4 9 17 28 -89 0
-4 9 17 -28 89 0
-4 9 -17 28 89 0
-4 9 -17 -28 -89 0
-4 -9 17 28 89 0
-4 -9 17 -28 -89 0
-4 -9 -17 28 -89 0
-4 -9 -17 -28 89 0
25 55 82 90 -91 0
25 55 82 -90 91 0
25 55 -82 90 91 0
25 55 -82 -90 -91 0
25 -55 82 90 91 0
25 -55 82 -90 -91 0
25 -55 -82 90 -91 0
25 -55 -82 -90 91 0
-25 55 82 90 91 0
-25 55 82 -90 -91 0
-25 55 -82 90 -91 0
-25 55 -82 -90 91 0
-25 -55 82 90 -91 0
-25 -55 82 -90 91 0
-25 -55 -82 90 91 0
-25 -55 -82 -90 -91 0
62 80 83 90 -92 0
62 80 83 -90 92 0
62 80 -83 90 92 0
62 80 -83 -90 -92 0
62 -80 83 90 92 0
62 -80 83 -90 -92 0
62 -80 -83 90 -92 0
62 -80 -83 -90 92 0
-62 80 83 90 92 0
-62 80 83 -90 -92 0
-62 80 -83 90 -92 0
-62 80 -83 -90 92 0
-62 -80 83 90 -92 0
-62 -80 83 -90 92 0
-62 -80 -83 90 92 0
-62 -80 -83 -90 -92 0
18 31 71 74 85 0
18 31 71 -74 -85 0
18 31 -71 74 -85 0
18 31 -71 -74 85 0
18 -31 71 74 -85 0
18 -31 71 -74 85 0
18 -31 -71 74 85 0
18 -31 -71 -74 -85 0
-18 31 71 74 -85 0
-18 31 71 -74 85 0
-18 31 -71 74 85 0
-18 31 -71 -74 -85 0
-18 -31 71 74 85 0
-18 -31 71 -74 -85 0
-18 -31 -71 74 -85 0
-18 -31 -71 -74 85 0
19 40 49 93 94 0
19 40 49 -93 -94 0
19 40 -49 93 -94 0
19 40 -49 -93 94 0
19 -40 49 93 -94 0
19 -40 49 -93 94 0
19 -40 -49 93 94 0
19 -40 -49 -93 -94 0
-19 40 49 93 -94 0
-19 40 49 -93 94 0
-19 40 -49 93 94 0
-19 40 -49 -93 -94 0
-19 -40 49 93 94 0
-19 -40 49 -93 -94 0
-19 -40 -49 93 -94 0
-19 -40 -49 -93 94 0
29 87 91 95 -96 0
29 87 91 -95 96 0
29 87 -91 95 96 0
29 87 -91 -95 -96 0
29 -87 91 95 96 0
29 -87 91 -95 -96 0
29 -87 -91 95 -96 0
29 -87 -91 -95 96 0
-29 87 91 95 96 0
-29 87 91 -95 -96 0
-29 87 -91 95 -96 0
-29 87 -91 -95 96 0
-29 -87 91 95 -96 0
-29 -87 91 -95 96 0
-29 -87 -91 95 96 0
-29 -87 -91 -95 -96 0
20 52 93 97 98 0
20 52 93 -97 -98 0
20 52 -93 97 -98 0
20 52 -93 -97 98 0
20 -52 93 97 -98 0
20 -52 93 -97 98 0
20 -52 -93 97 98 0
20 -52 -93 -97 -98 0
-20 52 93 97 -98 0
-20 52 93 -97 98 0
-20 52 -93 97 98 0
-20 52 -93 -97 -98 0
-20 -52 93 97 98 0
-20 -52 93 -97 -98 0
-20 -52 -93 97 -98 0
-20 -52 -93 -97 98 0
14 30 77 86 -95 0
14 30 77 -86 95 0
14 30 -77 86 95 0
14 30 -77 -86 -95 0
14 -30 77 86 95 0
14 -30 77 -86 -95 0
14 -30 -77 86 -95 0
14 -30 -77 -86 95 0
-14 30 77 86 95 0
-14 30 77 -86 -95 0
-14 30 -77 86 -95 0
-14 30 -77 -86 95 0
-14 -30 77 86 -95 0
-14 -30 77 -86 95 0
-14 -30 -77 86 95 0
-14 -30 -77 -86 -95 0
56 59 66 92 -97 0
56 59 66 -92 97 0
56 59 -66 92 97 0
56 59 -66 -92 -97 0
56 -59 66 92 97 0
56 -59 66 -92 -97 0
56 -59 -66 92 -97 0
56 -59 -66 -92 97 0
-56 59 66 92 97 0
-56 59 66 -92 -97 0
-56 59 -66 92 -97 0
-56 59 -66 -92 97 0
-56 -59 66 92 -97 0
-56 -59 66 -92 97 0
-56 -59 -66 92 97 0
-56 -59 -66 -92 -97 0
5 10 32 96 99 0
5 10 32 -96 -99 0
5 10 -32 96 -99 0
5 10 -32 -96 99 0
5 -10 32 96 -99 0
5 -10 32 -96 99 0
5 -10 -32 96 99 0
5 -10 -32 -96 -99 0
-5 10 32 96 -99 0
-5 10 32 -96 99 0
-5 10 -32 96 99 0
-5 10 -32 -96 -99 0
-5 -10 32 96 99 0
-5 -10 32 -96 -99 0
-5 -10 -32 96 -99 0
-5 -10 -32 -96 99 0
15 41 53 67 94 0
15 41 53 -67 -94 0
15 41 -53 67 -94 0
15 41 -53 -67 94 0
15 -41 53 67 -94 0
15 -41 53 -67 94 0
15 -41 -53 67 94 0
15 -41 -53 -67 -94 0
-15 41 53 67 -94 0
-15 41 53 -67 94 0
-15 41 -53 67 94 0
-15 41 -53 -67 -94 0
-15 -41 53 67 94 0
-15 -41 53 -67 -94 0
-15 -41 -53 67 -94 0
-15 -41 -53 -67 94 0
43 63 79 99 -100 0
43 63 79 -99 100 0
43 63 -79 99 100 0
43 63 -79 -99 -100 0
43 -63 79 99 100 0
43 -63 79 -99 -100 0
43 -63 -79 99 -100 0
43 -63 -79 -99 100 0
-43 63 79 99 100 0
-43 63 79 -99 -100 0
-43 63 -79 99 -100 0
-43 63 -79 -99 100 0
-43 -63 79 99 -100 0
-43 -63 79 -99 100 0
-43 -63 -79 99 100 0
-43 -63 -79 -99 -100 0
35 44 75 88 89 0
35 44 75 -88 -89 0
35 44 -75 88 -89 0
35 44 -75 -88 89 0
35 -44 75 88 -89 0
35 -44 75 -88 89 0
35 -44 -75 88 89 0
35 -44 -75 -88 -89 0
-35 44 75 88 -89 0
-35 44 75 -88 89 0
-35 44 -75 88 89 0
-35 44 -75 -88 -89 0
-35 -44 75 88 89 0
-35 -44 75 -88 -89 0
-35 -44 -75 88 -89 0
-35 -44 -75 -88 89 0
36 45 84 98 -100 0
36 45 84 -98 100 0
36 45 -84 98 100 0
36 45 -84 -98 -100 0
36 -45 84 98 100 0
36 -45 84 -98 -100 0
36 -45 -84 98 -100 0
36 -45 -84 -98 100 0
-36 45 84 98 100 0
-36 45 84 -98 -100 0
-36 45 -84 98 -100 0
-36 45 -84 -98 100 0
-36 -45 84 98 -100 0
-36 -45 84 -98 100 0
-36 -45 -84 98 100 0
-36 -45 -84 -98 -100 0
